Version identifier: 22.1.0.0 | 2022-03-09 | 1a383f8ce
CPXPARAM_Threads                                 1
CPXPARAM_MIP_Strategy_VariableSelect             3
CPXPARAM_TimeLimit                               588.61169335299996
1 of 1 MIP starts provided solutions.
MIP start 'm1' defined initial solution with objective 474.0000.
Tried aggregator 1 time.
MIP Presolve eliminated 15 rows and 0 columns.
MIP Presolve modified 6 coefficients.
Reduced MIP has 5005 rows, 10000 columns, and 117696 nonzeros.
Reduced MIP has 10000 binaries, 0 generals, 0 SOSs, and 0 indicators.
Presolve time = 0.08 sec. (62.84 ticks)
Probing time = 0.01 sec. (4.69 ticks)
Tried aggregator 1 time.
Detecting symmetries...
Reduced MIP has 5005 rows, 10000 columns, and 117696 nonzeros.
Reduced MIP has 10000 binaries, 0 generals, 0 SOSs, and 0 indicators.
Presolve time = 0.09 sec. (68.18 ticks)
Probing time = 0.01 sec. (4.69 ticks)
Clique table members: 3489.
MIP emphasis: balance optimality and feasibility.
MIP search method: dynamic search.
Parallel mode: none, using 1 thread.
Root relaxation solution time = 4.62 sec. (4608.68 ticks)

        Nodes                                         Cuts/
   Node  Left     Objective  IInf  Best Integer    Best Bound    ItCnt     Gap

*     0+    0                          474.0000    10000.0000              --- 
      0     0      500.0000  2228      474.0000      500.0000    10511    5.49%
      0     0      500.0000   221      474.0000      Cuts: 17    14907    5.49%
*     0+    0                          488.0000      500.0000             2.46%
*     0+    0                          493.0000      500.0000             1.42%
*     0+    0                          495.0000      500.0000             1.01%
      0     0        cutoff            495.0000      500.0000    14907    1.01%
Detecting symmetries...
      0     2      500.0000    37      495.0000      500.0000    14907    1.01%
Elapsed time = 97.98 sec. (100640.96 ticks, tree = 0.01 MB, solutions = 4)
      1     3      500.0000   155      495.0000      500.0000    36599    1.01%
      2     4      500.0000   183      495.0000      500.0000    43795    1.01%
      3     5      500.0000   138      495.0000      500.0000    49751    1.01%
      4     6      500.0000   104      495.0000      500.0000    52763    1.01%
      5     7      500.0000    93      495.0000      500.0000    53615    1.01%
      6     8      500.0000   547      495.0000      500.0000    83520    1.01%
      7     9      500.0000   119      495.0000      500.0000    88733    1.01%
      8    10      500.0000   135      495.0000      500.0000    91516    1.01%
      9    11      500.0000   182      495.0000      500.0000    92862    1.01%
     11    13      500.0000    97      495.0000      500.0000    95773    1.01%
Elapsed time = 134.11 sec. (135844.25 ticks, tree = 0.32 MB, solutions = 4)
*    14     1      integral     0      500.0000      500.0000    96301    0.00%

Clique cuts applied:  16
Zero-half cuts applied:  1

Root node processing (before b&c):
  Real time             =   97.92 sec. (100586.41 ticks)
Sequential b&c:
  Real time             =   37.01 sec. (36078.51 ticks)
                          ------------
Total (root+branch&cut) =  134.92 sec. (136664.93 ticks)
Primal:	500
Dual:	500
Status:	Optimal
Time:	134.93
Sequence:
	9
	11
	13
	9
	11
	13
	9
	11
	13
	9
	11
	6
	9
	7
	0
	9
	7
	4
	17
	7
	13
	17
	14
	6
	17
	14
	6
	8
	16
	4
	8
	16
	4
	17
	14
	6
	17
	7
	5
	8
	16
	6
	8
	16
	3
	8
	7
	5
	9
	0
	14
	9
	0
	16
	19
	12
	7
	1
	12
	13
	10
	2
	3
	18
	2
	3
	18
	4
	2
	18
	3
	5
	8
	4
	16
	8
	3
	4
	18
	2
	3
	18
	2
	3
	18
	2
	3
	18
	2
	4
	18
	2
	4
	18
	2
	3
	18
	2
	3
	18
	2
	3
	18
	2
	4
	18
	2
	4
	10
	12
	4
	1
	16
	12
	1
	16
	12
	19
	4
	14
	17
	13
	16
	8
	5
	14
	17
	13
	14
	17
	13
	14
	17
	6
	7
	8
	5
	7
	8
	3
	7
	8
	6
	7
	17
	13
	16
	8
	13
	16
	8
	5
	7
	12
	1
	7
	12
	19
	16
	0
	9
	14
	0
	9
	7
	0
	9
	7
	5
	8
	16
	13
	17
	7
	6
	17
	7
	3
	17
	7
	5
	8
	16
	13
	17
	7
	5
	8
	14
	5
	8
	14
	13
	17
	14
	6
	8
	7
	6
	8
	7
	4
	8
	14
	5
	1
	12
	16
	1
	12
	6
	10
	2
	0
	10
	15
	0
	10
	15
	0
	10
	15
	0
	10
	15
	0
	10
	15
	0
	10
	13
	12
	1
	16
	12
	1
	14
	3
	8
	16
	4
	17
	4
	14
	8
	5
	6
	17
	7
	13
	17
	14
	5
	8
	7
	13
	8
	14
	3
	12
	19
	16
	0
	9
	13
	0
	10
	15
	0
	10
	15
	0
	10
	15
	0
	10
	15
	0
	10
	15
	0
	1
	13
	11
	9
	4
	11
	9
	4
	11
	9
	6
	11
	9
	13
	11
	9
	4
	11
	9
	4
	11
	9
	4
	11
	9
	4
	11
	9
	4
	3
	18
	2
	4
	18
	2
	4
	18
	2
	3
	18
	3
	2
	18
	4
	5
	8
	13
	7
	8
	6
	16
	8
	5
	14
	17
	13
	16
	8
	13
	14
	17
	4
	13
	8
	16
	13
	8
	16
	3
	17
	14
	13
	8
	16
	13
	17
	7
	6
	17
	7
	6
	17
	14
	5
	8
	7
	6
	17
	7
	5
	8
	5
	7
	17
	13
	7
	8
	13
	14
	1
	4
	3
	18
	2
	4
	10
	12
	5
	19
	12
	16
	1
	12
	7
	1
	12
	16
	19
	12
	14
	19
	12
	14
	19
	12
	7
	19
	12
	16
	19
	12
	16
	19
	12
	7
	19
	12
	7
	19
	12
	14
	19
	2
	11
	1
	15
	11
	1
	15
	11
	1
	15
	11
	1
	15
	11
	1
	2
	11
	19
	2
	11
	1
	5
	12
	7
	19
	12
	16
	1
	12
	14
	1
	12
	6
	1
	12
	5
	1
	11
	2
	19
	16
	12
	19
	4
	11
	9
	13
	11
	9
	3
	11
	19
	2
	11
	1
	15
	0
	10
	15
	0
	10
	15
	0
	10
	15
	0
	10
	15
	0
	10
	15
	5
	1
	11
	13
	9
	11
